-99 000 000 000 000 000 -99 000 -99 -99 -99 -99 -99 000 000 -99 -99 -99 000 000 000 000 000 000 000 000 -99 -99 000 -99 000
000 000 000 000 000 000 000 000 000 -99 -99 -99 -99 000 000 -99 -99 -99 -99 000 000 001 001 000 000 000 000 000 000 -99 -99
000 000 -99 000 000 000 -99 000 000 -99 -99 -99 -99 000 000 000 -99 -99 -99 000 000 001 001 000 000 000 000 000 -99 -99 -99
000 000 000 000 000 000 000 000 000 000 -99 -99 000 -99 000 000 -99 -99 -99 000 000 000 000 000 000 000 000 -99 -99 -99 -99
000 000 000 000 000 000 000 000 000 000 -99 -99 000 000 000 000 000 -99 -99 -99 000 000 000 000 000 000 -99 -99 -99 -99 -99
000 000 000 000 000 000 000 000 000 000 -99 -99 000 000 000 000 -99 -99 -99 -99 000 000 000 000 000 -99 -99 -99 -99 -99 -99
000 000 000 000 000 000 000 000 000 000 -99 -99 -99 000 000 000 000 -99 -99 -99 000 000 000 000 000 000 -99 -99 -99 -99 -99
000 000 000 000 000 000 000 000 000 000 -99 -99 -99 -99 -99 000 000 000 -99 -99 -99 000 000 000 000 000 -99 -99 -99 000 -99
000 000 000 000 000 000 000 000 000 000 000 000 -99 002 002 -99 -99 -99 -99 -99 000 000 000 000 000 000 -99 -99 -99 000 000
000 000 000 000 000 000 000 000 000 000 000 000 -99 007 007 -99 -99 -99 -99 -99 000 000 -99 000 000 000 000 000 -99 -99 -99
000 000 000 000 000 -99 -99 000 000 000 000 000 000 006 006 -99 -99 -99 -99 -99 000 000 -99 000 000 000 000 000 -99 000 000
000 000 000 000 -99 000 -99 000 000 000 000 000 000 -99 -99 -99 000 -99 000 -99 000 -99 -99 000 000 -99 -99 -99 -99 000 000
000 000 000 000 000 000 -99 -99 000 000 000 000 -99 -99 -99 -99 000 -99 000 -99 -99 -99 -99 -99 000 000 -99 -99 000 000 -99
-99 000 000 000 000 000 000 000 000 -99 -99 -99 -99 -99 -99 -99 -99 -99 -99 -99 -99 -99 -99 -99 000 000 000 000 -99 -99 -99
000 -99 000 000 000 000 000 000 -99 -99 -99 -99 -99 -99 -99 -99 -99 -99 -99 -99 -99 -99 -99 -99 000 000 000 000 -99 -99 -99
000 000 000 000 000 000 000 000 000 -99 -99 -99 -99 000 -99 -99 -99 000 -99 -99 -99 -99 -99 -99 000 000 000 000 -99 -99 -99
000 000 000 000 -99 000 000 000 000 -99 -99 -99 -99 000 000 -99 000 000 -99 -99 -99 -99 -99 000 000 000 000 000 -99 -99 -99
000 000 000 000 -99 -99 000 000 000 -99 -99 -99 -99 000 000 -99 000 000 -99 -99 -99 -99 -99 000 000 000 000 -99 -99 -99 -99
000 000 000 000 -99 -99 000 000 000 -99 -99 -99 -99 -99 -99 -99 000 000 -99 -99 -99 -99 000 000 000 000 -99 -99 -99 -99 -99
000 000 000 000 000 000 000 000 000 -99 -99 -99 -99 -99 -99 -99 000 000 -99 -99 -99 -99 000 000 000 000 -99 -99 -99 -99 -99
000 000 000 000 000 000 000 000 000 000 -99 -99 -99 -99 -99 -99 000 000 000 -99 -99 -99 000 -99 -99 -99 -99 -99 -99 -99 -99
000 000 000 000 000 000 000 000 000 000 -99 -99 -99 -99 -99 -99 000 000 000 000 -99 -99 000 -99 -99 -99 -99 -99 -99 -99 -99
000 000 000 000 000 000 000 000 000 -99 -99 -99 -99 -99 000 000 000 000 000 000 -99 -99 000 -99 -99 -99 -99 -99 -99 -99 -99
000 000 000 000 000 -99 000 000 000 -99 -99 -99 000 000 000 000 000 000 000 000 -99 -99 000 -99 -99 -99 -99 -99 -99 -99 -99
-99 -99 000 000 000 000 000 000 000 -99 -99 -99 -99 000 000 000 000 000 000 000 -99 000 000 -99 -99 -99 -99 -99 -99 -99 000
-99 -99 -99 000 000 000 -99 000 000 -99 -99 -99 -99 000 000 000 000 000 000 -99 -99 000 000 -99 -99 -99 -99 -99 -99 000 000
000 -99 -99 000 000 000 000 -99 -99 -99 -99 -99 -99 -99 000 000 000 000 000 -99 -99 000 000 -99 -99 -99 -99 -99 -99 000 000
000 000 -99 000 000 000 000 -99 -99 -99 -99 -99 -99 -99 000 000 000 000 000 -99 000 000 000 -99 -99 -99 -99 -99 -99 000 000
000 000 -99 -99 000 000 000 000 000 000 -99 -99 -99 000 000 000 000 000 000 -99 -99 000 -99 -99 -99 -99 -99 -99 -99 000 000
000 -99 -99 000 000 -99 -99 -99 000 000 000 000 -99 -99 000 000 000 000 000 000 000 000 -99 -99 -99 000 -99 -99 -99 -99 -99
000 -99 -99 -99 -99 -99 -99 -99 000 000 000 000 000 000 -99 000 000 000 000 000 -99 000 -99 -99 000 000 000 -99 -99 -99 -99
000 000 -99 -99 -99 -99 -99 -99 000 000 000 -99 000 000 -99 -99 -99 -99 000 000 000 -99 000 000 000 000 000 -99 000 -99 000
000 000 000 -99 -99 -99 -99 -99 -99 000 -99 -99 000 000 -99 -99 -99 -99 000 000 -99 -99 000 000 000 000 -99 000 000 000 000
000 000 000 000 000 -99 -99 -99 000 -99 000 -99 000 000 -99 -99 -99 -99 000 000 -99 000 000 000 000 000 000 000 000 000 000
000 000 000 000 000 000 -99 000 000 -99 000 -99 000 000 000 -99 -99 -99 -99 000 000 000 000 000 000 000 000 000 000 001 000
000 000 000 000 000 000 000 000 -99 000 000 000 000 000 000 -99 -99 -99 -99 000 000 000 000 000 000 000 000 001 001 001 002
000 000 000 000 000 000 000 000 -99 000 000 -99 000 000 000 -99 -99 -99 000 000 000 000 000 000 000 000 000 001 001 003 003
000 000 000 000 000 000 000 000 000 000 -99 000 000 000 000 -99 -99 -99 000 000 000 000 000 000 001 001 001 000 002 003 004
000 000 000 000 000 000 000 000 -99 -99 -99 -99 000 000 000 000 -99 000 000 000 000 000 000 001 001 001 001 001 000 001 002
000 000 000 000 000 -99 -99 000 000 -99 000 000 000 000 000 000 -99 000 000 000 000 000 000 001 002 002 001 001 000 000 001
000 000 000 000 000 -99 -99 -99 -99 000 000 000 000 000 000 000 000 000 000 000 002 002 001 001 001 001 001 001 000 000 000
000 000 -99 000 000 000 000 -99 000 000 000 000 000 000 000 000 -99 000 000 000 002 004 000 001 001 000 001 000 000 000 000
-99 000 -99 -99 000 000 000 -99 000 000 000 000 000 000 000 000 000 000 000 000 003 002 000 002 001 000 000 001 002 001 000
000 -99 -99 -99 -99 000 -99 -99 -99 000 000 000 000 000 000 000 000 000 000 000 000 001 001 003 001 000 001 001 002 002 000
-99 -99 -99 -99 -99 -99 -99 -99 -99 000 000 000 000 000 000 000 000 000 000 000 000 000 001 001 001 001 001 001 002 002 000
-99 -99 -99 -99 -99 -99 -99 -99 -99 -99 000 000 000 000 000 000 000 000 000 000 000 000 000 001 001 001 001 001 001 001 001
-99 -99 -99 -99 -99 -99 -99 -99 -99 -99 -99 000 000 -99 -99 -99 000 000 000 000 000 000 000 001 002 001 000 000 001 002 001
-99 -99 -99 -99 -99 -99 -99 -99 -99 -99 000 000 000 -99 -99 -99 -99 -99 000 000 000 000 000 001 001 000 000 000 001 002 001
-99 -99 -99 -99 -99 -99 -99 -99 -99 -99 -99 -99 -99 -99 -99 -99 -99 -99 -99 -99 -99 000 000 000 000 000 000 000 001 001 001
-99 -99 -99 -99 -99 -99 -99 -99 -99 -99 -99 -99 -99 -99 -99 -99 -99 -99 -99 -99 -99 -99 -99 000 000 000 000 000 000 000 000
-99 -99 -99 -99 -99 -99 -99 -99 -99 -99 -99 -99 -99 -99 -99 -99 -99 -99 -99 -99 -99 -99 -99 -99 -99 -99 000 000 000 000 000
-99 -99 -99 -99 -99 -99 -99 -99 -99 -99 -99 -99 -99 -99 -99 -99 -99 -99 -99 -99 -99 -99 -99 -99 -99 -99 -99 -99 000 000 000
-99 -99 -99 -99 -99 -99 -99 -99 -99 -99 -99 -99 -99 -99 -99 -99 -99 -99 -99 -99 -99 -99 -99 -99 -99 -99 -99 -99 -99 000 -99
-99 -99 -99 -99 -99 -99 -99 -99 -99 -99 -99 -99 -99 -99 -99 -99 -99 -99 -99 -99 -99 -99 -99 -99 -99 -99 -99 -99 -99 -99 -99
-99 -99 -99 -99 -99 -99 -99 -99 -99 -99 -99 -99 -99 -99 -99 000 000 -99 -99 -99 -99 -99 -99 -99 -99 -99 -99 -99 -99 -99 -99
